c turning on binary mode checking
c parsing input formula with 259840 variables and 1039934 clauses
c finished parsing, read 23318527 bytes from proof file
c detected empty clause; start verification via backward checking
c 20199 of 1039934 clauses in core                            
c 23952 of 611209 lemmas in core using 235994 resolution steps
c 0 RAT lemmas in core; 1972 redundant literals in core lemmas
s VERIFIED
c verification time: 2.692 seconds
